n_res = 4;
rc = [ 25, 26, 20, 19 ];
n_tasks = 30;
d = [ 6, 7, 4, 8, 1, 8, 6, 8, 8, 1, 1, 6, 6, 5, 3, 7, 4, 5, 8, 7, 8, 10, 5, 3, 8, 4, 2, 8, 9, 3 ];
rr = [| 9, 9, 5, 0, 8, 1, 2, 0, 9, 9, 2, 9, 1, 9, 4, 7, 1, 7, 3, 0, 0, 8, 0, 6, 7, 6, 8, 4, 8, 0
      | 9, 1, 0, 6, 9, 10, 3, 4, 0, 7, 6, 6, 0, 9, 1, 10, 0, 0, 2, 1, 8, 9, 0, 0, 10, 0, 0, 3, 0, 4
      | 10, 6, 8, 0, 5, 9, 0, 4, 7, 7, 10, 0, 8, 0, 3, 7, 0, 10, 10, 4, 1, 0, 2, 10, 0, 0, 10, 1, 5, 8
      | 8, 0, 4, 1, 4, 0, 10, 2, 3, 6, 1, 0, 3, 0, 10, 9, 9, 5, 5, 0, 1, 4, 10, 3, 5, 7, 3, 4, 5, 9 |];
suc = [ { 2 }, 
        { 1 }, 
        { 4 }, 
        { 3 }, 
        { 6 }, 
        { 5 }, 
        { 8 }, 
        { 7 }, 
        { 10 }, 
        { 9 }, 
        { 12 }, 
        { 11 }, 
        { 14 }, 
        { 13 }, 
        { 16 }, 
        { 15 }, 
        { 18 }, 
        { 17 }, 
        { 20 }, 
        { 19 }, 
        { 22 }, 
        { 21 }, 
        { 24 }, 
        { 23 }, 
        { 26 }, 
        { 25 }, 
        { 28 }, 
        { 27 }, 
        { 30 }, 
        { 29 }]; 
